4298932575948240842502,13,1,2,04,8,1,2,09,10,1,2,07,5,1,2,04,8,1,2,07,5,1,2,012,7,1,2,09,14,1,2,06,10,1,2,014,7,1,2,015,3,1,2,02,10,1,2,09,3,1,2,09,5,1,2,02,10,1,2,013,2,1,2,07,9,1,2,08,10,1,2,02,13,1,2,015,14,1,2,011,6,1,2,010,7,1,2,04,4,1,2,05,6,1,2,07,12,1,2,014,6,1,2,014,13,1,2,09,4,1,2,06,8,1,2,06,11,1,2,07,7,1,2,04,4,1,2,03,12,1,2,09,1,1,2,015,12,1,2,05,14,1,2,011,14,1,2,012,15,1,2,015,10,1,2,01,5,1,2,05,14,1,2,012,6,1,2,01,3,1,2,014,8,1,2,015,2,1,2,04,2,1,2,06,1,1,2,011,2,1,2,013,9,1,2,08,3,1,2,0